\* WBM_Problem *\
Maximize
Total_weights_of_selected_edges: - 313.221738583 e_16_0 + 211.039071383 e_16_1
 + 199.8631661 e_16_10 - 124.201896246 e_16_11 - 209.878907438 e_16_12
 + 70.0311039501 e_16_13 - 1188.29996564 e_16_14 + 157.348418613 e_16_15
 + 665.121668245 e_16_17 + 30.4194604049 e_16_18 + 677.068318696 e_16_19
 + 197.029647417 e_16_2 + 1346.07258836 e_16_20 + 293.343849432 e_16_21
 - 968.527784272 e_16_22 - 95.1864713381 e_16_24 + 183.980496051 e_16_25
 + 8.78997855854 e_16_26 - 32.8444010365 e_16_27 - 1242.61858199 e_16_29
 + 159.97290378 e_16_3 - 97.3357260457 e_16_4 - 29.5004919657 e_16_6
 + 998.194988965 e_16_7 - 100.292795522 e_16_8 - 116.896347808 e_16_9
 + 5531.4701273 e_23_0 - 10.5243758539 e_23_1 + 97.119461143 e_23_10
 + 1517.22438632 e_23_11 + 261.061797543 e_23_12 + 572.684297275 e_23_13
 + 1761.50727901 e_23_14 - 75.9600446585 e_23_15 - 3398.88100505 e_23_17
 + 87.6035906055 e_23_18 - 247.314978854 e_23_19 - 156.563188379 e_23_2
 - 2350.2475505 e_23_20 - 243.154777497 e_23_21 + 686.487476349 e_23_22
 + 199.519166209 e_23_24 - 18.3413530385 e_23_25 + 232.371557037 e_23_26
 + 167.504987584 e_23_27 + 800.307647669 e_23_29 + 1419.33506715 e_23_3
 + 269.887165001 e_23_4 + 951.787976021 e_23_6 - 66.7064687254 e_23_7
 + 259.94979037 e_23_8 + 846.508012948 e_23_9 + 3938.34131803 e_28_0
 - 81.3622736423 e_28_1 - 285.811356186 e_28_10 + 2730.08039774 e_28_11
 + 296.505243419 e_28_12 + 1112.76907828 e_28_13 + 1800.79251528 e_28_14
 - 157.587451003 e_28_15 - 36963.4136431 e_28_17 + 92.9151877943 e_28_18
 - 322.561746499 e_28_19 - 206.216854771 e_28_2 - 2243.23734645 e_28_20
 - 369.593232422 e_28_21 + 767.428029998 e_28_22 + 251.912526836 e_28_24
 - 209.539481663 e_28_25 + 366.674784515 e_28_26 + 81.5149240602 e_28_27
 + 874.230406129 e_28_29 + 1316.63961222 e_28_3 + 347.880156292 e_28_4
 + 638.892069863 e_28_6 - 388.411484725 e_28_7 + 331.241667015 e_28_8
 + 1294.25258414 e_28_9 + 180.651059399 e_5_0 - 565.554179431 e_5_1
 - 135.720011653 e_5_10 + 177.915609832 e_5_11 + 283.390039466 e_5_12
 + 233.296126577 e_5_13 + 132.26661749 e_5_14 - 49.10884975 e_5_15
 - 57.8496315741 e_5_17 + 3793.06665887 e_5_18 + 35.0356339839 e_5_19
 + 23.8535671978 e_5_2 + 9.36009708481 e_5_20 - 9.07809833099 e_5_21
 + 122.190762329 e_5_22 + 2922.74611526 e_5_24 - 102.787265917 e_5_25
 + 166.283355567 e_5_26 + 1154.14063779 e_5_27 + 157.477888227 e_5_29
 + 336.733227438 e_5_3 + 73.2305170437 e_5_4 + 326.056124848 e_5_6
 - 154.6090661 e_5_7 + 64.934686734 e_5_8 + 156.317945986 e_5_9
Subject To
_C1: e_5_0 + e_5_1 + e_5_10 + e_5_11 + e_5_12 + e_5_13 + e_5_14 + e_5_15
 + e_5_17 + e_5_18 + e_5_19 + e_5_2 + e_5_20 + e_5_21 + e_5_22 + e_5_24
 + e_5_25 + e_5_26 + e_5_27 + e_5_29 + e_5_3 + e_5_4 + e_5_6 + e_5_7 + e_5_8
 + e_5_9 <= 2
_C10: e_16_4 + e_23_4 + e_28_4 + e_5_4 <= 1
_C100: e_16_26 + e_23_26 + e_28_26 + e_5_26 <= 1
_C101: e_28_0 + e_28_1 + e_28_10 + e_28_11 + e_28_12 + e_28_13 + e_28_14
 + e_28_15 + e_28_17 + e_28_18 + e_28_19 + e_28_2 + e_28_20 + e_28_21
 + e_28_22 + e_28_24 + e_28_25 + e_28_26 + e_28_27 + e_28_29 + e_28_3 + e_28_4
 + e_28_6 + e_28_7 + e_28_8 + e_28_9 <= 2
_C102: e_16_27 + e_23_27 + e_28_27 + e_5_27 <= 1
_C103: e_28_0 + e_28_1 + e_28_10 + e_28_11 + e_28_12 + e_28_13 + e_28_14
 + e_28_15 + e_28_17 + e_28_18 + e_28_19 + e_28_2 + e_28_20 + e_28_21
 + e_28_22 + e_28_24 + e_28_25 + e_28_26 + e_28_27 + e_28_29 + e_28_3 + e_28_4
 + e_28_6 + e_28_7 + e_28_8 + e_28_9 <= 2
_C104: e_16_29 + e_23_29 + e_28_29 + e_5_29 <= 1
_C105: e_16_0 + e_16_1 + e_16_10 + e_16_11 + e_16_12 + e_16_13 + e_16_14
 + e_16_15 + e_16_17 + e_16_18 + e_16_19 + e_16_2 + e_16_20 + e_16_21
 + e_16_22 + e_16_24 + e_16_25 + e_16_26 + e_16_27 + e_16_29 + e_16_3 + e_16_4
 + e_16_6 + e_16_7 + e_16_8 + e_16_9 <= 2
_C106: e_16_0 + e_23_0 + e_28_0 + e_5_0 <= 1
_C107: e_16_0 + e_16_1 + e_16_10 + e_16_11 + e_16_12 + e_16_13 + e_16_14
 + e_16_15 + e_16_17 + e_16_18 + e_16_19 + e_16_2 + e_16_20 + e_16_21
 + e_16_22 + e_16_24 + e_16_25 + e_16_26 + e_16_27 + e_16_29 + e_16_3 + e_16_4
 + e_16_6 + e_16_7 + e_16_8 + e_16_9 <= 2
_C108: e_16_1 + e_23_1 + e_28_1 + e_5_1 <= 1
_C109: e_16_0 + e_16_1 + e_16_10 + e_16_11 + e_16_12 + e_16_13 + e_16_14
 + e_16_15 + e_16_17 + e_16_18 + e_16_19 + e_16_2 + e_16_20 + e_16_21
 + e_16_22 + e_16_24 + e_16_25 + e_16_26 + e_16_27 + e_16_29 + e_16_3 + e_16_4
 + e_16_6 + e_16_7 + e_16_8 + e_16_9 <= 2
_C11: e_5_0 + e_5_1 + e_5_10 + e_5_11 + e_5_12 + e_5_13 + e_5_14 + e_5_15
 + e_5_17 + e_5_18 + e_5_19 + e_5_2 + e_5_20 + e_5_21 + e_5_22 + e_5_24
 + e_5_25 + e_5_26 + e_5_27 + e_5_29 + e_5_3 + e_5_4 + e_5_6 + e_5_7 + e_5_8
 + e_5_9 <= 2
_C110: e_16_2 + e_23_2 + e_28_2 + e_5_2 <= 1
_C111: e_16_0 + e_16_1 + e_16_10 + e_16_11 + e_16_12 + e_16_13 + e_16_14
 + e_16_15 + e_16_17 + e_16_18 + e_16_19 + e_16_2 + e_16_20 + e_16_21
 + e_16_22 + e_16_24 + e_16_25 + e_16_26 + e_16_27 + e_16_29 + e_16_3 + e_16_4
 + e_16_6 + e_16_7 + e_16_8 + e_16_9 <= 2
_C112: e_16_3 + e_23_3 + e_28_3 + e_5_3 <= 1
_C113: e_16_0 + e_16_1 + e_16_10 + e_16_11 + e_16_12 + e_16_13 + e_16_14
 + e_16_15 + e_16_17 + e_16_18 + e_16_19 + e_16_2 + e_16_20 + e_16_21
 + e_16_22 + e_16_24 + e_16_25 + e_16_26 + e_16_27 + e_16_29 + e_16_3 + e_16_4
 + e_16_6 + e_16_7 + e_16_8 + e_16_9 <= 2
_C114: e_16_4 + e_23_4 + e_28_4 + e_5_4 <= 1
_C115: e_16_0 + e_16_1 + e_16_10 + e_16_11 + e_16_12 + e_16_13 + e_16_14
 + e_16_15 + e_16_17 + e_16_18 + e_16_19 + e_16_2 + e_16_20 + e_16_21
 + e_16_22 + e_16_24 + e_16_25 + e_16_26 + e_16_27 + e_16_29 + e_16_3 + e_16_4
 + e_16_6 + e_16_7 + e_16_8 + e_16_9 <= 2
_C116: e_16_6 + e_23_6 + e_28_6 + e_5_6 <= 1
_C117: e_16_0 + e_16_1 + e_16_10 + e_16_11 + e_16_12 + e_16_13 + e_16_14
 + e_16_15 + e_16_17 + e_16_18 + e_16_19 + e_16_2 + e_16_20 + e_16_21
 + e_16_22 + e_16_24 + e_16_25 + e_16_26 + e_16_27 + e_16_29 + e_16_3 + e_16_4
 + e_16_6 + e_16_7 + e_16_8 + e_16_9 <= 2
_C118: e_16_7 + e_23_7 + e_28_7 + e_5_7 <= 1
_C119: e_16_0 + e_16_1 + e_16_10 + e_16_11 + e_16_12 + e_16_13 + e_16_14
 + e_16_15 + e_16_17 + e_16_18 + e_16_19 + e_16_2 + e_16_20 + e_16_21
 + e_16_22 + e_16_24 + e_16_25 + e_16_26 + e_16_27 + e_16_29 + e_16_3 + e_16_4
 + e_16_6 + e_16_7 + e_16_8 + e_16_9 <= 2
_C12: e_16_6 + e_23_6 + e_28_6 + e_5_6 <= 1
_C120: e_16_8 + e_23_8 + e_28_8 + e_5_8 <= 1
_C121: e_16_0 + e_16_1 + e_16_10 + e_16_11 + e_16_12 + e_16_13 + e_16_14
 + e_16_15 + e_16_17 + e_16_18 + e_16_19 + e_16_2 + e_16_20 + e_16_21
 + e_16_22 + e_16_24 + e_16_25 + e_16_26 + e_16_27 + e_16_29 + e_16_3 + e_16_4
 + e_16_6 + e_16_7 + e_16_8 + e_16_9 <= 2
_C122: e_16_9 + e_23_9 + e_28_9 + e_5_9 <= 1
_C123: e_16_0 + e_16_1 + e_16_10 + e_16_11 + e_16_12 + e_16_13 + e_16_14
 + e_16_15 + e_16_17 + e_16_18 + e_16_19 + e_16_2 + e_16_20 + e_16_21
 + e_16_22 + e_16_24 + e_16_25 + e_16_26 + e_16_27 + e_16_29 + e_16_3 + e_16_4
 + e_16_6 + e_16_7 + e_16_8 + e_16_9 <= 2
_C124: e_16_10 + e_23_10 + e_28_10 + e_5_10 <= 1
_C125: e_16_0 + e_16_1 + e_16_10 + e_16_11 + e_16_12 + e_16_13 + e_16_14
 + e_16_15 + e_16_17 + e_16_18 + e_16_19 + e_16_2 + e_16_20 + e_16_21
 + e_16_22 + e_16_24 + e_16_25 + e_16_26 + e_16_27 + e_16_29 + e_16_3 + e_16_4
 + e_16_6 + e_16_7 + e_16_8 + e_16_9 <= 2
_C126: e_16_11 + e_23_11 + e_28_11 + e_5_11 <= 1
_C127: e_16_0 + e_16_1 + e_16_10 + e_16_11 + e_16_12 + e_16_13 + e_16_14
 + e_16_15 + e_16_17 + e_16_18 + e_16_19 + e_16_2 + e_16_20 + e_16_21
 + e_16_22 + e_16_24 + e_16_25 + e_16_26 + e_16_27 + e_16_29 + e_16_3 + e_16_4
 + e_16_6 + e_16_7 + e_16_8 + e_16_9 <= 2
_C128: e_16_12 + e_23_12 + e_28_12 + e_5_12 <= 1
_C129: e_16_0 + e_16_1 + e_16_10 + e_16_11 + e_16_12 + e_16_13 + e_16_14
 + e_16_15 + e_16_17 + e_16_18 + e_16_19 + e_16_2 + e_16_20 + e_16_21
 + e_16_22 + e_16_24 + e_16_25 + e_16_26 + e_16_27 + e_16_29 + e_16_3 + e_16_4
 + e_16_6 + e_16_7 + e_16_8 + e_16_9 <= 2
_C13: e_5_0 + e_5_1 + e_5_10 + e_5_11 + e_5_12 + e_5_13 + e_5_14 + e_5_15
 + e_5_17 + e_5_18 + e_5_19 + e_5_2 + e_5_20 + e_5_21 + e_5_22 + e_5_24
 + e_5_25 + e_5_26 + e_5_27 + e_5_29 + e_5_3 + e_5_4 + e_5_6 + e_5_7 + e_5_8
 + e_5_9 <= 2
_C130: e_16_13 + e_23_13 + e_28_13 + e_5_13 <= 1
_C131: e_16_0 + e_16_1 + e_16_10 + e_16_11 + e_16_12 + e_16_13 + e_16_14
 + e_16_15 + e_16_17 + e_16_18 + e_16_19 + e_16_2 + e_16_20 + e_16_21
 + e_16_22 + e_16_24 + e_16_25 + e_16_26 + e_16_27 + e_16_29 + e_16_3 + e_16_4
 + e_16_6 + e_16_7 + e_16_8 + e_16_9 <= 2
_C132: e_16_14 + e_23_14 + e_28_14 + e_5_14 <= 1
_C133: e_16_0 + e_16_1 + e_16_10 + e_16_11 + e_16_12 + e_16_13 + e_16_14
 + e_16_15 + e_16_17 + e_16_18 + e_16_19 + e_16_2 + e_16_20 + e_16_21
 + e_16_22 + e_16_24 + e_16_25 + e_16_26 + e_16_27 + e_16_29 + e_16_3 + e_16_4
 + e_16_6 + e_16_7 + e_16_8 + e_16_9 <= 2
_C134: e_16_15 + e_23_15 + e_28_15 + e_5_15 <= 1
_C135: e_16_0 + e_16_1 + e_16_10 + e_16_11 + e_16_12 + e_16_13 + e_16_14
 + e_16_15 + e_16_17 + e_16_18 + e_16_19 + e_16_2 + e_16_20 + e_16_21
 + e_16_22 + e_16_24 + e_16_25 + e_16_26 + e_16_27 + e_16_29 + e_16_3 + e_16_4
 + e_16_6 + e_16_7 + e_16_8 + e_16_9 <= 2
_C136: e_16_17 + e_23_17 + e_28_17 + e_5_17 <= 1
_C137: e_16_0 + e_16_1 + e_16_10 + e_16_11 + e_16_12 + e_16_13 + e_16_14
 + e_16_15 + e_16_17 + e_16_18 + e_16_19 + e_16_2 + e_16_20 + e_16_21
 + e_16_22 + e_16_24 + e_16_25 + e_16_26 + e_16_27 + e_16_29 + e_16_3 + e_16_4
 + e_16_6 + e_16_7 + e_16_8 + e_16_9 <= 2
_C138: e_16_18 + e_23_18 + e_28_18 + e_5_18 <= 1
_C139: e_16_0 + e_16_1 + e_16_10 + e_16_11 + e_16_12 + e_16_13 + e_16_14
 + e_16_15 + e_16_17 + e_16_18 + e_16_19 + e_16_2 + e_16_20 + e_16_21
 + e_16_22 + e_16_24 + e_16_25 + e_16_26 + e_16_27 + e_16_29 + e_16_3 + e_16_4
 + e_16_6 + e_16_7 + e_16_8 + e_16_9 <= 2
_C14: e_16_7 + e_23_7 + e_28_7 + e_5_7 <= 1
_C140: e_16_19 + e_23_19 + e_28_19 + e_5_19 <= 1
_C141: e_16_0 + e_16_1 + e_16_10 + e_16_11 + e_16_12 + e_16_13 + e_16_14
 + e_16_15 + e_16_17 + e_16_18 + e_16_19 + e_16_2 + e_16_20 + e_16_21
 + e_16_22 + e_16_24 + e_16_25 + e_16_26 + e_16_27 + e_16_29 + e_16_3 + e_16_4
 + e_16_6 + e_16_7 + e_16_8 + e_16_9 <= 2
_C142: e_16_20 + e_23_20 + e_28_20 + e_5_20 <= 1
_C143: e_16_0 + e_16_1 + e_16_10 + e_16_11 + e_16_12 + e_16_13 + e_16_14
 + e_16_15 + e_16_17 + e_16_18 + e_16_19 + e_16_2 + e_16_20 + e_16_21
 + e_16_22 + e_16_24 + e_16_25 + e_16_26 + e_16_27 + e_16_29 + e_16_3 + e_16_4
 + e_16_6 + e_16_7 + e_16_8 + e_16_9 <= 2
_C144: e_16_21 + e_23_21 + e_28_21 + e_5_21 <= 1
_C145: e_16_0 + e_16_1 + e_16_10 + e_16_11 + e_16_12 + e_16_13 + e_16_14
 + e_16_15 + e_16_17 + e_16_18 + e_16_19 + e_16_2 + e_16_20 + e_16_21
 + e_16_22 + e_16_24 + e_16_25 + e_16_26 + e_16_27 + e_16_29 + e_16_3 + e_16_4
 + e_16_6 + e_16_7 + e_16_8 + e_16_9 <= 2
_C146: e_16_22 + e_23_22 + e_28_22 + e_5_22 <= 1
_C147: e_16_0 + e_16_1 + e_16_10 + e_16_11 + e_16_12 + e_16_13 + e_16_14
 + e_16_15 + e_16_17 + e_16_18 + e_16_19 + e_16_2 + e_16_20 + e_16_21
 + e_16_22 + e_16_24 + e_16_25 + e_16_26 + e_16_27 + e_16_29 + e_16_3 + e_16_4
 + e_16_6 + e_16_7 + e_16_8 + e_16_9 <= 2
_C148: e_16_24 + e_23_24 + e_28_24 + e_5_24 <= 1
_C149: e_16_0 + e_16_1 + e_16_10 + e_16_11 + e_16_12 + e_16_13 + e_16_14
 + e_16_15 + e_16_17 + e_16_18 + e_16_19 + e_16_2 + e_16_20 + e_16_21
 + e_16_22 + e_16_24 + e_16_25 + e_16_26 + e_16_27 + e_16_29 + e_16_3 + e_16_4
 + e_16_6 + e_16_7 + e_16_8 + e_16_9 <= 2
_C15: e_5_0 + e_5_1 + e_5_10 + e_5_11 + e_5_12 + e_5_13 + e_5_14 + e_5_15
 + e_5_17 + e_5_18 + e_5_19 + e_5_2 + e_5_20 + e_5_21 + e_5_22 + e_5_24
 + e_5_25 + e_5_26 + e_5_27 + e_5_29 + e_5_3 + e_5_4 + e_5_6 + e_5_7 + e_5_8
 + e_5_9 <= 2
_C150: e_16_25 + e_23_25 + e_28_25 + e_5_25 <= 1
_C151: e_16_0 + e_16_1 + e_16_10 + e_16_11 + e_16_12 + e_16_13 + e_16_14
 + e_16_15 + e_16_17 + e_16_18 + e_16_19 + e_16_2 + e_16_20 + e_16_21
 + e_16_22 + e_16_24 + e_16_25 + e_16_26 + e_16_27 + e_16_29 + e_16_3 + e_16_4
 + e_16_6 + e_16_7 + e_16_8 + e_16_9 <= 2
_C152: e_16_26 + e_23_26 + e_28_26 + e_5_26 <= 1
_C153: e_16_0 + e_16_1 + e_16_10 + e_16_11 + e_16_12 + e_16_13 + e_16_14
 + e_16_15 + e_16_17 + e_16_18 + e_16_19 + e_16_2 + e_16_20 + e_16_21
 + e_16_22 + e_16_24 + e_16_25 + e_16_26 + e_16_27 + e_16_29 + e_16_3 + e_16_4
 + e_16_6 + e_16_7 + e_16_8 + e_16_9 <= 2
_C154: e_16_27 + e_23_27 + e_28_27 + e_5_27 <= 1
_C155: e_16_0 + e_16_1 + e_16_10 + e_16_11 + e_16_12 + e_16_13 + e_16_14
 + e_16_15 + e_16_17 + e_16_18 + e_16_19 + e_16_2 + e_16_20 + e_16_21
 + e_16_22 + e_16_24 + e_16_25 + e_16_26 + e_16_27 + e_16_29 + e_16_3 + e_16_4
 + e_16_6 + e_16_7 + e_16_8 + e_16_9 <= 2
_C156: e_16_29 + e_23_29 + e_28_29 + e_5_29 <= 1
_C157: e_23_0 + e_23_1 + e_23_10 + e_23_11 + e_23_12 + e_23_13 + e_23_14
 + e_23_15 + e_23_17 + e_23_18 + e_23_19 + e_23_2 + e_23_20 + e_23_21
 + e_23_22 + e_23_24 + e_23_25 + e_23_26 + e_23_27 + e_23_29 + e_23_3 + e_23_4
 + e_23_6 + e_23_7 + e_23_8 + e_23_9 <= 2
_C158: e_16_0 + e_23_0 + e_28_0 + e_5_0 <= 1
_C159: e_23_0 + e_23_1 + e_23_10 + e_23_11 + e_23_12 + e_23_13 + e_23_14
 + e_23_15 + e_23_17 + e_23_18 + e_23_19 + e_23_2 + e_23_20 + e_23_21
 + e_23_22 + e_23_24 + e_23_25 + e_23_26 + e_23_27 + e_23_29 + e_23_3 + e_23_4
 + e_23_6 + e_23_7 + e_23_8 + e_23_9 <= 2
_C16: e_16_8 + e_23_8 + e_28_8 + e_5_8 <= 1
_C160: e_16_1 + e_23_1 + e_28_1 + e_5_1 <= 1
_C161: e_23_0 + e_23_1 + e_23_10 + e_23_11 + e_23_12 + e_23_13 + e_23_14
 + e_23_15 + e_23_17 + e_23_18 + e_23_19 + e_23_2 + e_23_20 + e_23_21
 + e_23_22 + e_23_24 + e_23_25 + e_23_26 + e_23_27 + e_23_29 + e_23_3 + e_23_4
 + e_23_6 + e_23_7 + e_23_8 + e_23_9 <= 2
_C162: e_16_2 + e_23_2 + e_28_2 + e_5_2 <= 1
_C163: e_23_0 + e_23_1 + e_23_10 + e_23_11 + e_23_12 + e_23_13 + e_23_14
 + e_23_15 + e_23_17 + e_23_18 + e_23_19 + e_23_2 + e_23_20 + e_23_21
 + e_23_22 + e_23_24 + e_23_25 + e_23_26 + e_23_27 + e_23_29 + e_23_3 + e_23_4
 + e_23_6 + e_23_7 + e_23_8 + e_23_9 <= 2
_C164: e_16_3 + e_23_3 + e_28_3 + e_5_3 <= 1
_C165: e_23_0 + e_23_1 + e_23_10 + e_23_11 + e_23_12 + e_23_13 + e_23_14
 + e_23_15 + e_23_17 + e_23_18 + e_23_19 + e_23_2 + e_23_20 + e_23_21
 + e_23_22 + e_23_24 + e_23_25 + e_23_26 + e_23_27 + e_23_29 + e_23_3 + e_23_4
 + e_23_6 + e_23_7 + e_23_8 + e_23_9 <= 2
_C166: e_16_4 + e_23_4 + e_28_4 + e_5_4 <= 1
_C167: e_23_0 + e_23_1 + e_23_10 + e_23_11 + e_23_12 + e_23_13 + e_23_14
 + e_23_15 + e_23_17 + e_23_18 + e_23_19 + e_23_2 + e_23_20 + e_23_21
 + e_23_22 + e_23_24 + e_23_25 + e_23_26 + e_23_27 + e_23_29 + e_23_3 + e_23_4
 + e_23_6 + e_23_7 + e_23_8 + e_23_9 <= 2
_C168: e_16_6 + e_23_6 + e_28_6 + e_5_6 <= 1
_C169: e_23_0 + e_23_1 + e_23_10 + e_23_11 + e_23_12 + e_23_13 + e_23_14
 + e_23_15 + e_23_17 + e_23_18 + e_23_19 + e_23_2 + e_23_20 + e_23_21
 + e_23_22 + e_23_24 + e_23_25 + e_23_26 + e_23_27 + e_23_29 + e_23_3 + e_23_4
 + e_23_6 + e_23_7 + e_23_8 + e_23_9 <= 2
_C17: e_5_0 + e_5_1 + e_5_10 + e_5_11 + e_5_12 + e_5_13 + e_5_14 + e_5_15
 + e_5_17 + e_5_18 + e_5_19 + e_5_2 + e_5_20 + e_5_21 + e_5_22 + e_5_24
 + e_5_25 + e_5_26 + e_5_27 + e_5_29 + e_5_3 + e_5_4 + e_5_6 + e_5_7 + e_5_8
 + e_5_9 <= 2
_C170: e_16_7 + e_23_7 + e_28_7 + e_5_7 <= 1
_C171: e_23_0 + e_23_1 + e_23_10 + e_23_11 + e_23_12 + e_23_13 + e_23_14
 + e_23_15 + e_23_17 + e_23_18 + e_23_19 + e_23_2 + e_23_20 + e_23_21
 + e_23_22 + e_23_24 + e_23_25 + e_23_26 + e_23_27 + e_23_29 + e_23_3 + e_23_4
 + e_23_6 + e_23_7 + e_23_8 + e_23_9 <= 2
_C172: e_16_8 + e_23_8 + e_28_8 + e_5_8 <= 1
_C173: e_23_0 + e_23_1 + e_23_10 + e_23_11 + e_23_12 + e_23_13 + e_23_14
 + e_23_15 + e_23_17 + e_23_18 + e_23_19 + e_23_2 + e_23_20 + e_23_21
 + e_23_22 + e_23_24 + e_23_25 + e_23_26 + e_23_27 + e_23_29 + e_23_3 + e_23_4
 + e_23_6 + e_23_7 + e_23_8 + e_23_9 <= 2
_C174: e_16_9 + e_23_9 + e_28_9 + e_5_9 <= 1
_C175: e_23_0 + e_23_1 + e_23_10 + e_23_11 + e_23_12 + e_23_13 + e_23_14
 + e_23_15 + e_23_17 + e_23_18 + e_23_19 + e_23_2 + e_23_20 + e_23_21
 + e_23_22 + e_23_24 + e_23_25 + e_23_26 + e_23_27 + e_23_29 + e_23_3 + e_23_4
 + e_23_6 + e_23_7 + e_23_8 + e_23_9 <= 2
_C176: e_16_10 + e_23_10 + e_28_10 + e_5_10 <= 1
_C177: e_23_0 + e_23_1 + e_23_10 + e_23_11 + e_23_12 + e_23_13 + e_23_14
 + e_23_15 + e_23_17 + e_23_18 + e_23_19 + e_23_2 + e_23_20 + e_23_21
 + e_23_22 + e_23_24 + e_23_25 + e_23_26 + e_23_27 + e_23_29 + e_23_3 + e_23_4
 + e_23_6 + e_23_7 + e_23_8 + e_23_9 <= 2
_C178: e_16_11 + e_23_11 + e_28_11 + e_5_11 <= 1
_C179: e_23_0 + e_23_1 + e_23_10 + e_23_11 + e_23_12 + e_23_13 + e_23_14
 + e_23_15 + e_23_17 + e_23_18 + e_23_19 + e_23_2 + e_23_20 + e_23_21
 + e_23_22 + e_23_24 + e_23_25 + e_23_26 + e_23_27 + e_23_29 + e_23_3 + e_23_4
 + e_23_6 + e_23_7 + e_23_8 + e_23_9 <= 2
_C18: e_16_9 + e_23_9 + e_28_9 + e_5_9 <= 1
_C180: e_16_12 + e_23_12 + e_28_12 + e_5_12 <= 1
_C181: e_23_0 + e_23_1 + e_23_10 + e_23_11 + e_23_12 + e_23_13 + e_23_14
 + e_23_15 + e_23_17 + e_23_18 + e_23_19 + e_23_2 + e_23_20 + e_23_21
 + e_23_22 + e_23_24 + e_23_25 + e_23_26 + e_23_27 + e_23_29 + e_23_3 + e_23_4
 + e_23_6 + e_23_7 + e_23_8 + e_23_9 <= 2
_C182: e_16_13 + e_23_13 + e_28_13 + e_5_13 <= 1
_C183: e_23_0 + e_23_1 + e_23_10 + e_23_11 + e_23_12 + e_23_13 + e_23_14
 + e_23_15 + e_23_17 + e_23_18 + e_23_19 + e_23_2 + e_23_20 + e_23_21
 + e_23_22 + e_23_24 + e_23_25 + e_23_26 + e_23_27 + e_23_29 + e_23_3 + e_23_4
 + e_23_6 + e_23_7 + e_23_8 + e_23_9 <= 2
_C184: e_16_14 + e_23_14 + e_28_14 + e_5_14 <= 1
_C185: e_23_0 + e_23_1 + e_23_10 + e_23_11 + e_23_12 + e_23_13 + e_23_14
 + e_23_15 + e_23_17 + e_23_18 + e_23_19 + e_23_2 + e_23_20 + e_23_21
 + e_23_22 + e_23_24 + e_23_25 + e_23_26 + e_23_27 + e_23_29 + e_23_3 + e_23_4
 + e_23_6 + e_23_7 + e_23_8 + e_23_9 <= 2
_C186: e_16_15 + e_23_15 + e_28_15 + e_5_15 <= 1
_C187: e_23_0 + e_23_1 + e_23_10 + e_23_11 + e_23_12 + e_23_13 + e_23_14
 + e_23_15 + e_23_17 + e_23_18 + e_23_19 + e_23_2 + e_23_20 + e_23_21
 + e_23_22 + e_23_24 + e_23_25 + e_23_26 + e_23_27 + e_23_29 + e_23_3 + e_23_4
 + e_23_6 + e_23_7 + e_23_8 + e_23_9 <= 2
_C188: e_16_17 + e_23_17 + e_28_17 + e_5_17 <= 1
_C189: e_23_0 + e_23_1 + e_23_10 + e_23_11 + e_23_12 + e_23_13 + e_23_14
 + e_23_15 + e_23_17 + e_23_18 + e_23_19 + e_23_2 + e_23_20 + e_23_21
 + e_23_22 + e_23_24 + e_23_25 + e_23_26 + e_23_27 + e_23_29 + e_23_3 + e_23_4
 + e_23_6 + e_23_7 + e_23_8 + e_23_9 <= 2
_C19: e_5_0 + e_5_1 + e_5_10 + e_5_11 + e_5_12 + e_5_13 + e_5_14 + e_5_15
 + e_5_17 + e_5_18 + e_5_19 + e_5_2 + e_5_20 + e_5_21 + e_5_22 + e_5_24
 + e_5_25 + e_5_26 + e_5_27 + e_5_29 + e_5_3 + e_5_4 + e_5_6 + e_5_7 + e_5_8
 + e_5_9 <= 2
_C190: e_16_18 + e_23_18 + e_28_18 + e_5_18 <= 1
_C191: e_23_0 + e_23_1 + e_23_10 + e_23_11 + e_23_12 + e_23_13 + e_23_14
 + e_23_15 + e_23_17 + e_23_18 + e_23_19 + e_23_2 + e_23_20 + e_23_21
 + e_23_22 + e_23_24 + e_23_25 + e_23_26 + e_23_27 + e_23_29 + e_23_3 + e_23_4
 + e_23_6 + e_23_7 + e_23_8 + e_23_9 <= 2
_C192: e_16_19 + e_23_19 + e_28_19 + e_5_19 <= 1
_C193: e_23_0 + e_23_1 + e_23_10 + e_23_11 + e_23_12 + e_23_13 + e_23_14
 + e_23_15 + e_23_17 + e_23_18 + e_23_19 + e_23_2 + e_23_20 + e_23_21
 + e_23_22 + e_23_24 + e_23_25 + e_23_26 + e_23_27 + e_23_29 + e_23_3 + e_23_4
 + e_23_6 + e_23_7 + e_23_8 + e_23_9 <= 2
_C194: e_16_20 + e_23_20 + e_28_20 + e_5_20 <= 1
_C195: e_23_0 + e_23_1 + e_23_10 + e_23_11 + e_23_12 + e_23_13 + e_23_14
 + e_23_15 + e_23_17 + e_23_18 + e_23_19 + e_23_2 + e_23_20 + e_23_21
 + e_23_22 + e_23_24 + e_23_25 + e_23_26 + e_23_27 + e_23_29 + e_23_3 + e_23_4
 + e_23_6 + e_23_7 + e_23_8 + e_23_9 <= 2
_C196: e_16_21 + e_23_21 + e_28_21 + e_5_21 <= 1
_C197: e_23_0 + e_23_1 + e_23_10 + e_23_11 + e_23_12 + e_23_13 + e_23_14
 + e_23_15 + e_23_17 + e_23_18 + e_23_19 + e_23_2 + e_23_20 + e_23_21
 + e_23_22 + e_23_24 + e_23_25 + e_23_26 + e_23_27 + e_23_29 + e_23_3 + e_23_4
 + e_23_6 + e_23_7 + e_23_8 + e_23_9 <= 2
_C198: e_16_22 + e_23_22 + e_28_22 + e_5_22 <= 1
_C199: e_23_0 + e_23_1 + e_23_10 + e_23_11 + e_23_12 + e_23_13 + e_23_14
 + e_23_15 + e_23_17 + e_23_18 + e_23_19 + e_23_2 + e_23_20 + e_23_21
 + e_23_22 + e_23_24 + e_23_25 + e_23_26 + e_23_27 + e_23_29 + e_23_3 + e_23_4
 + e_23_6 + e_23_7 + e_23_8 + e_23_9 <= 2
_C2: e_16_0 + e_23_0 + e_28_0 + e_5_0 <= 1
_C20: e_16_10 + e_23_10 + e_28_10 + e_5_10 <= 1
_C200: e_16_24 + e_23_24 + e_28_24 + e_5_24 <= 1
_C201: e_23_0 + e_23_1 + e_23_10 + e_23_11 + e_23_12 + e_23_13 + e_23_14
 + e_23_15 + e_23_17 + e_23_18 + e_23_19 + e_23_2 + e_23_20 + e_23_21
 + e_23_22 + e_23_24 + e_23_25 + e_23_26 + e_23_27 + e_23_29 + e_23_3 + e_23_4
 + e_23_6 + e_23_7 + e_23_8 + e_23_9 <= 2
_C202: e_16_25 + e_23_25 + e_28_25 + e_5_25 <= 1
_C203: e_23_0 + e_23_1 + e_23_10 + e_23_11 + e_23_12 + e_23_13 + e_23_14
 + e_23_15 + e_23_17 + e_23_18 + e_23_19 + e_23_2 + e_23_20 + e_23_21
 + e_23_22 + e_23_24 + e_23_25 + e_23_26 + e_23_27 + e_23_29 + e_23_3 + e_23_4
 + e_23_6 + e_23_7 + e_23_8 + e_23_9 <= 2
_C204: e_16_26 + e_23_26 + e_28_26 + e_5_26 <= 1
_C205: e_23_0 + e_23_1 + e_23_10 + e_23_11 + e_23_12 + e_23_13 + e_23_14
 + e_23_15 + e_23_17 + e_23_18 + e_23_19 + e_23_2 + e_23_20 + e_23_21
 + e_23_22 + e_23_24 + e_23_25 + e_23_26 + e_23_27 + e_23_29 + e_23_3 + e_23_4
 + e_23_6 + e_23_7 + e_23_8 + e_23_9 <= 2
_C206: e_16_27 + e_23_27 + e_28_27 + e_5_27 <= 1
_C207: e_23_0 + e_23_1 + e_23_10 + e_23_11 + e_23_12 + e_23_13 + e_23_14
 + e_23_15 + e_23_17 + e_23_18 + e_23_19 + e_23_2 + e_23_20 + e_23_21
 + e_23_22 + e_23_24 + e_23_25 + e_23_26 + e_23_27 + e_23_29 + e_23_3 + e_23_4
 + e_23_6 + e_23_7 + e_23_8 + e_23_9 <= 2
_C208: e_16_29 + e_23_29 + e_28_29 + e_5_29 <= 1
_C21: e_5_0 + e_5_1 + e_5_10 + e_5_11 + e_5_12 + e_5_13 + e_5_14 + e_5_15
 + e_5_17 + e_5_18 + e_5_19 + e_5_2 + e_5_20 + e_5_21 + e_5_22 + e_5_24
 + e_5_25 + e_5_26 + e_5_27 + e_5_29 + e_5_3 + e_5_4 + e_5_6 + e_5_7 + e_5_8
 + e_5_9 <= 2
_C22: e_16_11 + e_23_11 + e_28_11 + e_5_11 <= 1
_C23: e_5_0 + e_5_1 + e_5_10 + e_5_11 + e_5_12 + e_5_13 + e_5_14 + e_5_15
 + e_5_17 + e_5_18 + e_5_19 + e_5_2 + e_5_20 + e_5_21 + e_5_22 + e_5_24
 + e_5_25 + e_5_26 + e_5_27 + e_5_29 + e_5_3 + e_5_4 + e_5_6 + e_5_7 + e_5_8
 + e_5_9 <= 2
_C24: e_16_12 + e_23_12 + e_28_12 + e_5_12 <= 1
_C25: e_5_0 + e_5_1 + e_5_10 + e_5_11 + e_5_12 + e_5_13 + e_5_14 + e_5_15
 + e_5_17 + e_5_18 + e_5_19 + e_5_2 + e_5_20 + e_5_21 + e_5_22 + e_5_24
 + e_5_25 + e_5_26 + e_5_27 + e_5_29 + e_5_3 + e_5_4 + e_5_6 + e_5_7 + e_5_8
 + e_5_9 <= 2
_C26: e_16_13 + e_23_13 + e_28_13 + e_5_13 <= 1
_C27: e_5_0 + e_5_1 + e_5_10 + e_5_11 + e_5_12 + e_5_13 + e_5_14 + e_5_15
 + e_5_17 + e_5_18 + e_5_19 + e_5_2 + e_5_20 + e_5_21 + e_5_22 + e_5_24
 + e_5_25 + e_5_26 + e_5_27 + e_5_29 + e_5_3 + e_5_4 + e_5_6 + e_5_7 + e_5_8
 + e_5_9 <= 2
_C28: e_16_14 + e_23_14 + e_28_14 + e_5_14 <= 1
_C29: e_5_0 + e_5_1 + e_5_10 + e_5_11 + e_5_12 + e_5_13 + e_5_14 + e_5_15
 + e_5_17 + e_5_18 + e_5_19 + e_5_2 + e_5_20 + e_5_21 + e_5_22 + e_5_24
 + e_5_25 + e_5_26 + e_5_27 + e_5_29 + e_5_3 + e_5_4 + e_5_6 + e_5_7 + e_5_8
 + e_5_9 <= 2
_C3: e_5_0 + e_5_1 + e_5_10 + e_5_11 + e_5_12 + e_5_13 + e_5_14 + e_5_15
 + e_5_17 + e_5_18 + e_5_19 + e_5_2 + e_5_20 + e_5_21 + e_5_22 + e_5_24
 + e_5_25 + e_5_26 + e_5_27 + e_5_29 + e_5_3 + e_5_4 + e_5_6 + e_5_7 + e_5_8
 + e_5_9 <= 2
_C30: e_16_15 + e_23_15 + e_28_15 + e_5_15 <= 1
_C31: e_5_0 + e_5_1 + e_5_10 + e_5_11 + e_5_12 + e_5_13 + e_5_14 + e_5_15
 + e_5_17 + e_5_18 + e_5_19 + e_5_2 + e_5_20 + e_5_21 + e_5_22 + e_5_24
 + e_5_25 + e_5_26 + e_5_27 + e_5_29 + e_5_3 + e_5_4 + e_5_6 + e_5_7 + e_5_8
 + e_5_9 <= 2
_C32: e_16_17 + e_23_17 + e_28_17 + e_5_17 <= 1
_C33: e_5_0 + e_5_1 + e_5_10 + e_5_11 + e_5_12 + e_5_13 + e_5_14 + e_5_15
 + e_5_17 + e_5_18 + e_5_19 + e_5_2 + e_5_20 + e_5_21 + e_5_22 + e_5_24
 + e_5_25 + e_5_26 + e_5_27 + e_5_29 + e_5_3 + e_5_4 + e_5_6 + e_5_7 + e_5_8
 + e_5_9 <= 2
_C34: e_16_18 + e_23_18 + e_28_18 + e_5_18 <= 1
_C35: e_5_0 + e_5_1 + e_5_10 + e_5_11 + e_5_12 + e_5_13 + e_5_14 + e_5_15
 + e_5_17 + e_5_18 + e_5_19 + e_5_2 + e_5_20 + e_5_21 + e_5_22 + e_5_24
 + e_5_25 + e_5_26 + e_5_27 + e_5_29 + e_5_3 + e_5_4 + e_5_6 + e_5_7 + e_5_8
 + e_5_9 <= 2
_C36: e_16_19 + e_23_19 + e_28_19 + e_5_19 <= 1
_C37: e_5_0 + e_5_1 + e_5_10 + e_5_11 + e_5_12 + e_5_13 + e_5_14 + e_5_15
 + e_5_17 + e_5_18 + e_5_19 + e_5_2 + e_5_20 + e_5_21 + e_5_22 + e_5_24
 + e_5_25 + e_5_26 + e_5_27 + e_5_29 + e_5_3 + e_5_4 + e_5_6 + e_5_7 + e_5_8
 + e_5_9 <= 2
_C38: e_16_20 + e_23_20 + e_28_20 + e_5_20 <= 1
_C39: e_5_0 + e_5_1 + e_5_10 + e_5_11 + e_5_12 + e_5_13 + e_5_14 + e_5_15
 + e_5_17 + e_5_18 + e_5_19 + e_5_2 + e_5_20 + e_5_21 + e_5_22 + e_5_24
 + e_5_25 + e_5_26 + e_5_27 + e_5_29 + e_5_3 + e_5_4 + e_5_6 + e_5_7 + e_5_8
 + e_5_9 <= 2
_C4: e_16_1 + e_23_1 + e_28_1 + e_5_1 <= 1
_C40: e_16_21 + e_23_21 + e_28_21 + e_5_21 <= 1
_C41: e_5_0 + e_5_1 + e_5_10 + e_5_11 + e_5_12 + e_5_13 + e_5_14 + e_5_15
 + e_5_17 + e_5_18 + e_5_19 + e_5_2 + e_5_20 + e_5_21 + e_5_22 + e_5_24
 + e_5_25 + e_5_26 + e_5_27 + e_5_29 + e_5_3 + e_5_4 + e_5_6 + e_5_7 + e_5_8
 + e_5_9 <= 2
_C42: e_16_22 + e_23_22 + e_28_22 + e_5_22 <= 1
_C43: e_5_0 + e_5_1 + e_5_10 + e_5_11 + e_5_12 + e_5_13 + e_5_14 + e_5_15
 + e_5_17 + e_5_18 + e_5_19 + e_5_2 + e_5_20 + e_5_21 + e_5_22 + e_5_24
 + e_5_25 + e_5_26 + e_5_27 + e_5_29 + e_5_3 + e_5_4 + e_5_6 + e_5_7 + e_5_8
 + e_5_9 <= 2
_C44: e_16_24 + e_23_24 + e_28_24 + e_5_24 <= 1
_C45: e_5_0 + e_5_1 + e_5_10 + e_5_11 + e_5_12 + e_5_13 + e_5_14 + e_5_15
 + e_5_17 + e_5_18 + e_5_19 + e_5_2 + e_5_20 + e_5_21 + e_5_22 + e_5_24
 + e_5_25 + e_5_26 + e_5_27 + e_5_29 + e_5_3 + e_5_4 + e_5_6 + e_5_7 + e_5_8
 + e_5_9 <= 2
_C46: e_16_25 + e_23_25 + e_28_25 + e_5_25 <= 1
_C47: e_5_0 + e_5_1 + e_5_10 + e_5_11 + e_5_12 + e_5_13 + e_5_14 + e_5_15
 + e_5_17 + e_5_18 + e_5_19 + e_5_2 + e_5_20 + e_5_21 + e_5_22 + e_5_24
 + e_5_25 + e_5_26 + e_5_27 + e_5_29 + e_5_3 + e_5_4 + e_5_6 + e_5_7 + e_5_8
 + e_5_9 <= 2
_C48: e_16_26 + e_23_26 + e_28_26 + e_5_26 <= 1
_C49: e_5_0 + e_5_1 + e_5_10 + e_5_11 + e_5_12 + e_5_13 + e_5_14 + e_5_15
 + e_5_17 + e_5_18 + e_5_19 + e_5_2 + e_5_20 + e_5_21 + e_5_22 + e_5_24
 + e_5_25 + e_5_26 + e_5_27 + e_5_29 + e_5_3 + e_5_4 + e_5_6 + e_5_7 + e_5_8
 + e_5_9 <= 2
_C5: e_5_0 + e_5_1 + e_5_10 + e_5_11 + e_5_12 + e_5_13 + e_5_14 + e_5_15
 + e_5_17 + e_5_18 + e_5_19 + e_5_2 + e_5_20 + e_5_21 + e_5_22 + e_5_24
 + e_5_25 + e_5_26 + e_5_27 + e_5_29 + e_5_3 + e_5_4 + e_5_6 + e_5_7 + e_5_8
 + e_5_9 <= 2
_C50: e_16_27 + e_23_27 + e_28_27 + e_5_27 <= 1
_C51: e_5_0 + e_5_1 + e_5_10 + e_5_11 + e_5_12 + e_5_13 + e_5_14 + e_5_15
 + e_5_17 + e_5_18 + e_5_19 + e_5_2 + e_5_20 + e_5_21 + e_5_22 + e_5_24
 + e_5_25 + e_5_26 + e_5_27 + e_5_29 + e_5_3 + e_5_4 + e_5_6 + e_5_7 + e_5_8
 + e_5_9 <= 2
_C52: e_16_29 + e_23_29 + e_28_29 + e_5_29 <= 1
_C53: e_28_0 + e_28_1 + e_28_10 + e_28_11 + e_28_12 + e_28_13 + e_28_14
 + e_28_15 + e_28_17 + e_28_18 + e_28_19 + e_28_2 + e_28_20 + e_28_21
 + e_28_22 + e_28_24 + e_28_25 + e_28_26 + e_28_27 + e_28_29 + e_28_3 + e_28_4
 + e_28_6 + e_28_7 + e_28_8 + e_28_9 <= 2
_C54: e_16_0 + e_23_0 + e_28_0 + e_5_0 <= 1
_C55: e_28_0 + e_28_1 + e_28_10 + e_28_11 + e_28_12 + e_28_13 + e_28_14
 + e_28_15 + e_28_17 + e_28_18 + e_28_19 + e_28_2 + e_28_20 + e_28_21
 + e_28_22 + e_28_24 + e_28_25 + e_28_26 + e_28_27 + e_28_29 + e_28_3 + e_28_4
 + e_28_6 + e_28_7 + e_28_8 + e_28_9 <= 2
_C56: e_16_1 + e_23_1 + e_28_1 + e_5_1 <= 1
_C57: e_28_0 + e_28_1 + e_28_10 + e_28_11 + e_28_12 + e_28_13 + e_28_14
 + e_28_15 + e_28_17 + e_28_18 + e_28_19 + e_28_2 + e_28_20 + e_28_21
 + e_28_22 + e_28_24 + e_28_25 + e_28_26 + e_28_27 + e_28_29 + e_28_3 + e_28_4
 + e_28_6 + e_28_7 + e_28_8 + e_28_9 <= 2
_C58: e_16_2 + e_23_2 + e_28_2 + e_5_2 <= 1
_C59: e_28_0 + e_28_1 + e_28_10 + e_28_11 + e_28_12 + e_28_13 + e_28_14
 + e_28_15 + e_28_17 + e_28_18 + e_28_19 + e_28_2 + e_28_20 + e_28_21
 + e_28_22 + e_28_24 + e_28_25 + e_28_26 + e_28_27 + e_28_29 + e_28_3 + e_28_4
 + e_28_6 + e_28_7 + e_28_8 + e_28_9 <= 2
_C6: e_16_2 + e_23_2 + e_28_2 + e_5_2 <= 1
_C60: e_16_3 + e_23_3 + e_28_3 + e_5_3 <= 1
_C61: e_28_0 + e_28_1 + e_28_10 + e_28_11 + e_28_12 + e_28_13 + e_28_14
 + e_28_15 + e_28_17 + e_28_18 + e_28_19 + e_28_2 + e_28_20 + e_28_21
 + e_28_22 + e_28_24 + e_28_25 + e_28_26 + e_28_27 + e_28_29 + e_28_3 + e_28_4
 + e_28_6 + e_28_7 + e_28_8 + e_28_9 <= 2
_C62: e_16_4 + e_23_4 + e_28_4 + e_5_4 <= 1
_C63: e_28_0 + e_28_1 + e_28_10 + e_28_11 + e_28_12 + e_28_13 + e_28_14
 + e_28_15 + e_28_17 + e_28_18 + e_28_19 + e_28_2 + e_28_20 + e_28_21
 + e_28_22 + e_28_24 + e_28_25 + e_28_26 + e_28_27 + e_28_29 + e_28_3 + e_28_4
 + e_28_6 + e_28_7 + e_28_8 + e_28_9 <= 2
_C64: e_16_6 + e_23_6 + e_28_6 + e_5_6 <= 1
_C65: e_28_0 + e_28_1 + e_28_10 + e_28_11 + e_28_12 + e_28_13 + e_28_14
 + e_28_15 + e_28_17 + e_28_18 + e_28_19 + e_28_2 + e_28_20 + e_28_21
 + e_28_22 + e_28_24 + e_28_25 + e_28_26 + e_28_27 + e_28_29 + e_28_3 + e_28_4
 + e_28_6 + e_28_7 + e_28_8 + e_28_9 <= 2
_C66: e_16_7 + e_23_7 + e_28_7 + e_5_7 <= 1
_C67: e_28_0 + e_28_1 + e_28_10 + e_28_11 + e_28_12 + e_28_13 + e_28_14
 + e_28_15 + e_28_17 + e_28_18 + e_28_19 + e_28_2 + e_28_20 + e_28_21
 + e_28_22 + e_28_24 + e_28_25 + e_28_26 + e_28_27 + e_28_29 + e_28_3 + e_28_4
 + e_28_6 + e_28_7 + e_28_8 + e_28_9 <= 2
_C68: e_16_8 + e_23_8 + e_28_8 + e_5_8 <= 1
_C69: e_28_0 + e_28_1 + e_28_10 + e_28_11 + e_28_12 + e_28_13 + e_28_14
 + e_28_15 + e_28_17 + e_28_18 + e_28_19 + e_28_2 + e_28_20 + e_28_21
 + e_28_22 + e_28_24 + e_28_25 + e_28_26 + e_28_27 + e_28_29 + e_28_3 + e_28_4
 + e_28_6 + e_28_7 + e_28_8 + e_28_9 <= 2
_C7: e_5_0 + e_5_1 + e_5_10 + e_5_11 + e_5_12 + e_5_13 + e_5_14 + e_5_15
 + e_5_17 + e_5_18 + e_5_19 + e_5_2 + e_5_20 + e_5_21 + e_5_22 + e_5_24
 + e_5_25 + e_5_26 + e_5_27 + e_5_29 + e_5_3 + e_5_4 + e_5_6 + e_5_7 + e_5_8
 + e_5_9 <= 2
_C70: e_16_9 + e_23_9 + e_28_9 + e_5_9 <= 1
_C71: e_28_0 + e_28_1 + e_28_10 + e_28_11 + e_28_12 + e_28_13 + e_28_14
 + e_28_15 + e_28_17 + e_28_18 + e_28_19 + e_28_2 + e_28_20 + e_28_21
 + e_28_22 + e_28_24 + e_28_25 + e_28_26 + e_28_27 + e_28_29 + e_28_3 + e_28_4
 + e_28_6 + e_28_7 + e_28_8 + e_28_9 <= 2
_C72: e_16_10 + e_23_10 + e_28_10 + e_5_10 <= 1
_C73: e_28_0 + e_28_1 + e_28_10 + e_28_11 + e_28_12 + e_28_13 + e_28_14
 + e_28_15 + e_28_17 + e_28_18 + e_28_19 + e_28_2 + e_28_20 + e_28_21
 + e_28_22 + e_28_24 + e_28_25 + e_28_26 + e_28_27 + e_28_29 + e_28_3 + e_28_4
 + e_28_6 + e_28_7 + e_28_8 + e_28_9 <= 2
_C74: e_16_11 + e_23_11 + e_28_11 + e_5_11 <= 1
_C75: e_28_0 + e_28_1 + e_28_10 + e_28_11 + e_28_12 + e_28_13 + e_28_14
 + e_28_15 + e_28_17 + e_28_18 + e_28_19 + e_28_2 + e_28_20 + e_28_21
 + e_28_22 + e_28_24 + e_28_25 + e_28_26 + e_28_27 + e_28_29 + e_28_3 + e_28_4
 + e_28_6 + e_28_7 + e_28_8 + e_28_9 <= 2
_C76: e_16_12 + e_23_12 + e_28_12 + e_5_12 <= 1
_C77: e_28_0 + e_28_1 + e_28_10 + e_28_11 + e_28_12 + e_28_13 + e_28_14
 + e_28_15 + e_28_17 + e_28_18 + e_28_19 + e_28_2 + e_28_20 + e_28_21
 + e_28_22 + e_28_24 + e_28_25 + e_28_26 + e_28_27 + e_28_29 + e_28_3 + e_28_4
 + e_28_6 + e_28_7 + e_28_8 + e_28_9 <= 2
_C78: e_16_13 + e_23_13 + e_28_13 + e_5_13 <= 1
_C79: e_28_0 + e_28_1 + e_28_10 + e_28_11 + e_28_12 + e_28_13 + e_28_14
 + e_28_15 + e_28_17 + e_28_18 + e_28_19 + e_28_2 + e_28_20 + e_28_21
 + e_28_22 + e_28_24 + e_28_25 + e_28_26 + e_28_27 + e_28_29 + e_28_3 + e_28_4
 + e_28_6 + e_28_7 + e_28_8 + e_28_9 <= 2
_C8: e_16_3 + e_23_3 + e_28_3 + e_5_3 <= 1
_C80: e_16_14 + e_23_14 + e_28_14 + e_5_14 <= 1
_C81: e_28_0 + e_28_1 + e_28_10 + e_28_11 + e_28_12 + e_28_13 + e_28_14
 + e_28_15 + e_28_17 + e_28_18 + e_28_19 + e_28_2 + e_28_20 + e_28_21
 + e_28_22 + e_28_24 + e_28_25 + e_28_26 + e_28_27 + e_28_29 + e_28_3 + e_28_4
 + e_28_6 + e_28_7 + e_28_8 + e_28_9 <= 2
_C82: e_16_15 + e_23_15 + e_28_15 + e_5_15 <= 1
_C83: e_28_0 + e_28_1 + e_28_10 + e_28_11 + e_28_12 + e_28_13 + e_28_14
 + e_28_15 + e_28_17 + e_28_18 + e_28_19 + e_28_2 + e_28_20 + e_28_21
 + e_28_22 + e_28_24 + e_28_25 + e_28_26 + e_28_27 + e_28_29 + e_28_3 + e_28_4
 + e_28_6 + e_28_7 + e_28_8 + e_28_9 <= 2
_C84: e_16_17 + e_23_17 + e_28_17 + e_5_17 <= 1
_C85: e_28_0 + e_28_1 + e_28_10 + e_28_11 + e_28_12 + e_28_13 + e_28_14
 + e_28_15 + e_28_17 + e_28_18 + e_28_19 + e_28_2 + e_28_20 + e_28_21
 + e_28_22 + e_28_24 + e_28_25 + e_28_26 + e_28_27 + e_28_29 + e_28_3 + e_28_4
 + e_28_6 + e_28_7 + e_28_8 + e_28_9 <= 2
_C86: e_16_18 + e_23_18 + e_28_18 + e_5_18 <= 1
_C87: e_28_0 + e_28_1 + e_28_10 + e_28_11 + e_28_12 + e_28_13 + e_28_14
 + e_28_15 + e_28_17 + e_28_18 + e_28_19 + e_28_2 + e_28_20 + e_28_21
 + e_28_22 + e_28_24 + e_28_25 + e_28_26 + e_28_27 + e_28_29 + e_28_3 + e_28_4
 + e_28_6 + e_28_7 + e_28_8 + e_28_9 <= 2
_C88: e_16_19 + e_23_19 + e_28_19 + e_5_19 <= 1
_C89: e_28_0 + e_28_1 + e_28_10 + e_28_11 + e_28_12 + e_28_13 + e_28_14
 + e_28_15 + e_28_17 + e_28_18 + e_28_19 + e_28_2 + e_28_20 + e_28_21
 + e_28_22 + e_28_24 + e_28_25 + e_28_26 + e_28_27 + e_28_29 + e_28_3 + e_28_4
 + e_28_6 + e_28_7 + e_28_8 + e_28_9 <= 2
_C9: e_5_0 + e_5_1 + e_5_10 + e_5_11 + e_5_12 + e_5_13 + e_5_14 + e_5_15
 + e_5_17 + e_5_18 + e_5_19 + e_5_2 + e_5_20 + e_5_21 + e_5_22 + e_5_24
 + e_5_25 + e_5_26 + e_5_27 + e_5_29 + e_5_3 + e_5_4 + e_5_6 + e_5_7 + e_5_8
 + e_5_9 <= 2
_C90: e_16_20 + e_23_20 + e_28_20 + e_5_20 <= 1
_C91: e_28_0 + e_28_1 + e_28_10 + e_28_11 + e_28_12 + e_28_13 + e_28_14
 + e_28_15 + e_28_17 + e_28_18 + e_28_19 + e_28_2 + e_28_20 + e_28_21
 + e_28_22 + e_28_24 + e_28_25 + e_28_26 + e_28_27 + e_28_29 + e_28_3 + e_28_4
 + e_28_6 + e_28_7 + e_28_8 + e_28_9 <= 2
_C92: e_16_21 + e_23_21 + e_28_21 + e_5_21 <= 1
_C93: e_28_0 + e_28_1 + e_28_10 + e_28_11 + e_28_12 + e_28_13 + e_28_14
 + e_28_15 + e_28_17 + e_28_18 + e_28_19 + e_28_2 + e_28_20 + e_28_21
 + e_28_22 + e_28_24 + e_28_25 + e_28_26 + e_28_27 + e_28_29 + e_28_3 + e_28_4
 + e_28_6 + e_28_7 + e_28_8 + e_28_9 <= 2
_C94: e_16_22 + e_23_22 + e_28_22 + e_5_22 <= 1
_C95: e_28_0 + e_28_1 + e_28_10 + e_28_11 + e_28_12 + e_28_13 + e_28_14
 + e_28_15 + e_28_17 + e_28_18 + e_28_19 + e_28_2 + e_28_20 + e_28_21
 + e_28_22 + e_28_24 + e_28_25 + e_28_26 + e_28_27 + e_28_29 + e_28_3 + e_28_4
 + e_28_6 + e_28_7 + e_28_8 + e_28_9 <= 2
_C96: e_16_24 + e_23_24 + e_28_24 + e_5_24 <= 1
_C97: e_28_0 + e_28_1 + e_28_10 + e_28_11 + e_28_12 + e_28_13 + e_28_14
 + e_28_15 + e_28_17 + e_28_18 + e_28_19 + e_28_2 + e_28_20 + e_28_21
 + e_28_22 + e_28_24 + e_28_25 + e_28_26 + e_28_27 + e_28_29 + e_28_3 + e_28_4
 + e_28_6 + e_28_7 + e_28_8 + e_28_9 <= 2
_C98: e_16_25 + e_23_25 + e_28_25 + e_5_25 <= 1
_C99: e_28_0 + e_28_1 + e_28_10 + e_28_11 + e_28_12 + e_28_13 + e_28_14
 + e_28_15 + e_28_17 + e_28_18 + e_28_19 + e_28_2 + e_28_20 + e_28_21
 + e_28_22 + e_28_24 + e_28_25 + e_28_26 + e_28_27 + e_28_29 + e_28_3 + e_28_4
 + e_28_6 + e_28_7 + e_28_8 + e_28_9 <= 2
Binaries
e_16_0
e_16_1
e_16_10
e_16_11
e_16_12
e_16_13
e_16_14
e_16_15
e_16_17
e_16_18
e_16_19
e_16_2
e_16_20
e_16_21
e_16_22
e_16_24
e_16_25
e_16_26
e_16_27
e_16_29
e_16_3
e_16_4
e_16_6
e_16_7
e_16_8
e_16_9
e_23_0
e_23_1
e_23_10
e_23_11
e_23_12
e_23_13
e_23_14
e_23_15
e_23_17
e_23_18
e_23_19
e_23_2
e_23_20
e_23_21
e_23_22
e_23_24
e_23_25
e_23_26
e_23_27
e_23_29
e_23_3
e_23_4
e_23_6
e_23_7
e_23_8
e_23_9
e_28_0
e_28_1
e_28_10
e_28_11
e_28_12
e_28_13
e_28_14
e_28_15
e_28_17
e_28_18
e_28_19
e_28_2
e_28_20
e_28_21
e_28_22
e_28_24
e_28_25
e_28_26
e_28_27
e_28_29
e_28_3
e_28_4
e_28_6
e_28_7
e_28_8
e_28_9
e_5_0
e_5_1
e_5_10
e_5_11
e_5_12
e_5_13
e_5_14
e_5_15
e_5_17
e_5_18
e_5_19
e_5_2
e_5_20
e_5_21
e_5_22
e_5_24
e_5_25
e_5_26
e_5_27
e_5_29
e_5_3
e_5_4
e_5_6
e_5_7
e_5_8
e_5_9
End
